<?xml version = "1.0" standalone="yes"?>
<!-- This file has been generated by DOcplex version 2.23.222  -->
<CPLEXSolution version="1.0">
 <header
   problemName="CVRP"
   objectiveValue="12451.1"
  />
 <variables>
  <variable name="x_0_2" index="1" value="1.00000"/>
  <variable name="x_0_3" index="2" value="1.00000"/>
  <variable name="x_0_4" index="3" value="1.00000"/>
  <variable name="x_0_5" index="4" value="1.00000"/>
  <variable name="x_0_6" index="5" value="1.00000"/>
  <variable name="x_0_10" index="9" value="1.00000"/>
  <variable name="x_0_12" index="11" value="1.00000"/>
  <variable name="x_0_13" index="12" value="1.00000"/>
  <variable name="x_0_14" index="13" value="1.00000"/>
  <variable name="x_0_15" index="14" value="1.00000"/>
  <variable name="x_0_16" index="15" value="1.00000"/>
  <variable name="x_0_18" index="17" value="1.00000"/>
  <variable name="x_0_21" index="20" value="1.00000"/>
  <variable name="x_1_0" index="24" value="1.00000"/>
  <variable name="x_2_9" index="56" value="1.00000"/>
  <variable name="x_3_0" index="72" value="1.00000"/>
  <variable name="x_4_0" index="96" value="1.00000"/>
  <variable name="x_5_24" index="143" value="1.00000"/>
  <variable name="x_6_8" index="151" value="1.00000"/>
  <variable name="x_7_11" index="178" value="1.00000"/>
  <variable name="x_8_0" index="192" value="1.00000"/>
  <variable name="x_9_0" index="216" value="1.00000"/>
  <variable name="x_10_20" index="259" value="1.00000"/>
  <variable name="x_11_0" index="264" value="1.00000"/>
  <variable name="x_12_22" index="309" value="1.00000"/>
  <variable name="x_13_0" index="312" value="1.00000"/>
  <variable name="x_14_17" index="352" value="1.00000"/>
  <variable name="x_15_0" index="360" value="1.00000"/>
  <variable name="x_16_1" index="385" value="1.00000"/>
  <variable name="x_17_7" index="415" value="1.00000"/>
  <variable name="x_18_0" index="432" value="1.00000"/>
  <variable name="x_19_0" index="456" value="1.00000"/>
  <variable name="x_20_0" index="480" value="1.00000"/>
  <variable name="x_21_0" index="504" value="1.00000"/>
  <variable name="x_22_19" index="547" value="1.00000"/>
  <variable name="x_23_0" index="552" value="1.00000"/>
  <variable name="x_24_23" index="599" value="1.00000"/>
  <variable name="u_1" index="600" value="57.00000"/>
  <variable name="u_2" index="601" value="51.00000"/>
  <variable name="u_3" index="602" value="47.00000"/>
  <variable name="u_4" index="603" value="69.00000"/>
  <variable name="u_5" index="604" value="6.00000"/>
  <variable name="u_6" index="605" value="30.00000"/>
  <variable name="u_7" index="606" value="45.00000"/>
  <variable name="u_8" index="607" value="69.00000"/>
  <variable name="u_9" index="608" value="69.00000"/>
  <variable name="u_10" index="609" value="61.00000"/>
  <variable name="u_11" index="610" value="55.00000"/>
  <variable name="u_12" index="611" value="21.00000"/>
  <variable name="u_13" index="612" value="69.00000"/>
  <variable name="u_14" index="613" value="4.00000"/>
  <variable name="u_15" index="614" value="62.00000"/>
  <variable name="u_16" index="615" value="16.00000"/>
  <variable name="u_17" index="616" value="30.00000"/>
  <variable name="u_18" index="617" value="51.00000"/>
  <variable name="u_19" index="618" value="65.00000"/>
  <variable name="u_20" index="619" value="69.00000"/>
  <variable name="u_21" index="620" value="62.00000"/>
  <variable name="u_22" index="621" value="27.00000"/>
  <variable name="u_23" index="622" value="67.00000"/>
  <variable name="u_24" index="623" value="57.00000"/>
 </variables>
</CPLEXSolution>
